424 5
10 10 10 10 10 

0 0 0 0 0 0 5 2 14 26 38 50 
0 0 0 0 0 0 1 3 
10 0 0 8 0 0 2 4 414 
9 0 0 5 0 0 1 5 
4 0 0 9 0 0 2 7 6 
7 0 0 4 0 0 2 9 8 
10 0 0 4 0 0 1 8 
4 0 0 10 0 0 2 12 10 
1 0 0 10 0 0 2 12 10 
5 0 0 10 0 0 1 11 
2 0 0 5 0 0 1 13 
3 0 0 10 0 0 1 13 
0 0 0 0 0 0 1 62 
0 0 0 0 0 0 3 15 17 215 
9 0 4 0 0 0 1 16 
7 0 8 0 0 0 1 18 
4 0 5 0 0 0 1 18 
2 0 10 0 0 0 2 22 19 
6 0 5 0 0 0 2 24 20 
9 0 7 0 0 0 1 21 
7 0 8 0 0 0 1 23 
7 0 10 0 0 0 1 23 
3 0 8 0 0 0 1 25 
10 0 10 0 0 0 1 25 
0 0 0 0 0 0 1 62 
0 0 0 0 0 0 3 27 30 31 
1 0 0 0 1 0 1 28 
3 0 0 0 6 0 1 29 
1 0 0 0 10 0 2 36 32 
10 0 0 0 10 0 2 36 34 
8 0 0 0 10 0 3 36 34 115 
10 0 0 0 10 0 1 33 
10 0 0 0 5 0 1 34 
8 0 0 0 8 0 1 35 
8 0 0 0 10 0 1 37 
5 0 0 0 5 0 1 37 
0 0 0 0 0 0 1 62 
0 0 0 0 0 0 2 39 44 
3 0 0 7 0 0 2 46 40 
3 0 0 3 0 0 1 41 
3 0 0 8 0 0 1 42 
9 0 0 4 0 0 1 43 
6 0 0 8 0 0 2 48 45 
4 0 0 10 0 0 2 48 47 
5 0 0 10 0 0 2 47 257 
2 0 0 8 0 0 1 47 
1 0 0 10 0 0 1 49 
8 0 0 7 0 0 1 49 
0 0 0 0 0 0 1 62 
0 0 0 0 0 0 1 51 
1 0 1 0 0 0 3 58 52 248 
1 0 6 0 0 0 2 56 53 
4 0 10 0 0 0 1 54 
1 0 8 0 0 0 1 55 
5 0 10 0 0 0 2 60 57 
5 0 9 0 0 0 2 60 59 
1 0 10 0 0 0 1 59 
3 0 8 0 0 0 1 59 
3 0 7 0 0 0 1 61 
3 0 6 0 0 0 1 61 
0 0 0 0 0 0 1 62 
0 0 0 0 0 0 5 63 75 87 99 111 
0 0 0 0 0 0 2 64 68 
8 4 0 0 0 0 2 73 65 
9 4 0 0 0 0 1 66 
1 7 0 0 0 0 1 67 
8 9 0 0 0 0 2 72 69 
7 10 0 0 0 0 3 73 72 71 
9 6 0 0 0 0 2 70 218 
7 10 0 0 0 0 1 71 
2 10 0 0 0 0 1 74 
10 10 0 0 0 0 1 74 
2 5 0 0 0 0 1 74 
0 0 0 0 0 0 1 123 
0 0 0 0 0 0 3 76 81 84 
10 0 0 6 0 0 2 83 77 
6 0 0 5 0 0 1 78 
10 0 0 7 0 0 1 79 
2 0 0 10 0 0 2 80 260 
6 0 0 7 0 0 1 82 
2 0 0 9 0 0 1 82 
5 0 0 6 0 0 1 85 
8 0 0 8 0 0 1 85 
9 0 0 8 0 0 1 85 
6 0 0 9 0 0 1 86 
0 0 0 0 0 0 1 123 
0 0 0 0 0 0 2 88 91 
10 0 5 0 0 0 1 89 
6 0 7 0 0 0 1 90 
6 0 6 0 0 0 3 97 92 148 
1 0 6 0 0 0 2 97 92 
3 0 10 0 0 0 2 96 93 
6 0 10 0 0 0 1 94 
2 0 4 0 0 0 1 95 
1 0 7 0 0 0 1 98 
5 0 10 0 0 0 1 98 
10 0 10 0 0 0 1 98 
0 0 0 0 0 0 1 123 
0 0 0 0 0 0 2 100 105 
9 0 0 2 0 0 1 101 
1 0 0 10 0 0 2 109 102 
1 0 0 4 0 0 2 107 103 
2 0 0 8 0 0 1 104 
6 0 0 9 0 0 1 106 
9 0 0 7 0 0 1 106 
2 0 0 10 0 0 1 108 
5 0 0 8 0 0 1 108 
7 0 0 7 0 0 2 110 384 
4 0 0 10 0 0 1 110 
0 0 0 0 0 0 1 123 
0 0 0 0 0 0 3 112 113 121 
2 0 5 0 0 0 2 116 114 
6 0 6 0 0 0 1 114 
7 0 10 0 0 0 2 115 152 
9 0 10 0 0 0 1 117 
2 0 8 0 0 0 1 117 
1 0 8 0 0 0 1 118 
2 0 8 0 0 0 1 119 
6 0 4 0 0 0 1 120 
8 0 8 0 0 0 1 122 
10 0 8 0 0 0 1 122 
0 0 0 0 0 0 1 123 
0 0 0 0 0 0 5 124 156 188 220 252 
0 0 0 0 0 0 2 125 133 
8 0 6 0 3 5 1 126 
8 0 3 0 8 4 1 127 
10 0 6 0 8 10 1 128 
10 0 7 0 8 10 1 129 
4 0 8 0 8 10 2 137 130 
7 0 7 0 6 8 1 131 
7 0 8 0 10 8 1 132 
7 0 6 0 9 5 3 138 136 134 
5 0 5 0 3 10 3 136 134 164 
3 0 9 0 9 7 2 140 135 
3 0 10 0 6 6 3 143 142 139 
6 0 10 0 10 5 2 142 139 
2 0 8 0 8 7 2 142 139 
7 0 10 0 10 5 2 142 141 
4 0 10 0 5 10 1 141 
9 0 7 0 10 6 1 141 
3 0 7 0 5 8 1 144 
10 0 7 0 8 4 1 144 
2 0 10 0 4 10 1 144 
7 0 7 0 10 4 1 145 
8 0 5 0 8 10 1 146 
4 0 6 0 8 7 2 150 147 
5 0 6 0 7 8 1 148 
10 0 10 0 4 8 1 149 
3 0 6 0 6 10 1 151 
10 0 10 0 10 8 1 151 
7 0 6 0 8 8 1 152 
10 0 9 0 10 6 1 153 
4 0 6 0 8 10 1 154 
1 0 10 0 8 8 1 155 
0 0 0 0 0 0 1 424 
0 0 0 0 0 0 2 157 178 
9 2 2 0 3 0 1 158 
6 6 4 0 10 0 1 159 
6 8 8 0 6 0 1 160 
5 3 7 0 10 0 1 161 
10 7 6 0 5 0 2 170 162 
10 10 7 0 9 0 1 163 
8 8 7 0 7 0 1 164 
3 7 5 0 10 0 3 173 167 165 
1 5 10 0 7 0 2 169 166 
2 10 8 0 8 0 3 175 172 168 
4 6 8 0 10 0 2 175 171 
5 4 9 0 7 0 1 171 
6 10 10 0 9 0 1 171 
4 9 7 0 5 0 2 171 286 
1 5 7 0 8 0 1 174 
3 10 7 0 6 0 1 174 
9 10 10 0 8 0 1 175 
9 10 5 0 8 0 1 176 
9 4 10 0 10 0 1 176 
4 9 9 0 5 0 1 177 
7 6 7 0 8 0 2 185 179 
3 9 3 0 4 0 2 185 179 
9 10 7 0 10 0 1 180 
5 6 10 0 10 0 1 181 
10 10 6 0 8 0 1 182 
3 7 10 0 10 0 1 183 
5 5 10 0 4 0 1 184 
2 10 7 0 10 0 1 186 
8 10 9 0 4 0 1 186 
7 9 10 0 6 0 1 187 
0 0 0 0 0 0 1 424 
0 0 0 0 0 0 2 189 198 
10 0 3 0 4 4 1 190 
1 0 4 0 8 8 1 191 
6 0 7 0 10 7 1 192 
10 0 9 0 6 10 1 193 
5 0 7 0 7 7 2 200 194 
4 0 6 0 10 10 1 195 
3 0 7 0 6 5 1 196 
10 0 7 0 6 8 3 202 201 197 
1 0 8 0 7 9 2 204 199 
6 0 8 0 10 9 4 208 206 204 203 
8 0 4 0 6 6 3 208 206 203 
4 0 10 0 10 10 2 208 203 
2 0 10 0 8 8 2 208 205 
10 0 10 0 9 4 2 208 207 
7 0 8 0 4 10 2 205 351 
9 0 7 0 8 8 1 205 
5 0 8 0 7 9 1 207 
4 0 6 0 3 6 1 207 
5 0 5 0 8 8 1 209 
6 0 7 0 10 9 1 209 
2 0 8 0 9 7 1 210 
1 0 10 0 7 10 2 214 211 
8 0 7 0 9 5 1 212 
2 0 7 0 9 6 1 213 
3 0 7 0 10 9 1 215 
4 0 10 0 6 8 1 215 
5 0 10 0 8 7 1 216 
10 0 10 0 7 1 1 217 
1 0 6 0 3 7 1 218 
6 0 9 0 10 10 1 219 
0 0 0 0 0 0 1 424 
0 0 0 0 0 0 2 221 250 
2 0 2 5 5 0 1 222 
5 0 4 2 10 0 1 223 
10 0 9 7 10 0 1 224 
10 0 8 8 7 0 1 225 
10 0 6 10 10 0 3 249 226 373 
2 0 9 9 5 0 1 227 
10 0 10 6 10 0 2 248 228 
3 0 6 10 9 0 4 247 246 243 229 
1 0 8 9 7 0 2 237 230 
3 0 6 10 8 0 1 231 
1 0 4 8 3 0 1 232 
3 0 5 9 10 0 1 233 
10 0 9 10 9 0 2 245 234 
10 0 8 3 6 0 1 235 
1 0 5 8 8 0 1 236 
2 0 10 10 6 0 1 238 
7 0 8 9 10 0 1 238 
9 0 3 7 7 0 1 239 
4 0 8 5 8 0 1 240 
6 0 10 9 3 0 1 241 
2 0 7 7 4 0 1 242 
7 0 7 9 8 0 1 244 
1 0 10 6 10 0 1 244 
6 0 9 8 8 0 1 251 
3 0 10 10 7 0 1 251 
9 0 10 6 10 0 1 251 
6 0 10 3 9 0 1 251 
9 0 10 7 8 0 1 251 
2 0 6 8 6 0 1 251 
8 0 8 7 4 0 1 251 
0 0 0 0 0 0 1 424 
0 0 0 0 0 0 3 253 261 262 
7 0 0 0 2 0 1 254 
8 0 0 0 10 0 1 255 
1 0 0 0 8 0 2 259 256 
5 0 0 0 6 0 2 257 370 
4 0 0 0 10 0 1 258 
6 0 0 0 7 0 1 260 
6 0 0 0 9 0 1 260 
8 0 0 0 4 0 1 263 
8 0 0 0 10 0 1 263 
10 0 0 0 9 0 1 263 
0 0 0 0 0 0 5 264 276 298 320 342 
0 0 0 0 0 0 3 265 268 273 
8 0 0 1 0 0 1 266 
1 0 0 10 0 0 1 267 
8 0 0 5 0 0 2 271 269 
7 0 0 6 0 0 1 269 
4 0 0 10 0 0 1 270 
4 0 0 6 0 0 1 272 
4 0 0 10 0 0 1 272 
2 0 0 8 0 0 1 274 
4 0 0 9 0 0 2 274 295 
9 0 0 10 0 0 1 275 
0 0 0 0 0 0 5 364 376 388 400 412 
0 0 0 0 0 0 2 277 279 
9 0 0 0 3 5 2 282 278 
1 0 0 0 8 10 1 280 
5 0 0 0 8 7 1 280 
6 0 0 0 7 4 1 281 
10 0 0 0 8 10 1 283 
10 0 0 0 7 10 1 283 
7 0 0 0 7 5 2 288 284 
5 0 0 0 6 8 2 294 285 
7 0 0 0 10 10 1 286 
4 0 0 0 7 8 1 287 
7 0 0 0 10 9 2 296 289 
3 0 0 0 6 4 2 296 289 
10 0 0 0 8 7 1 290 
9 0 0 0 10 7 1 291 
4 0 0 0 10 10 1 292 
5 0 0 0 7 8 2 293 312 
6 0 0 0 9 3 1 295 
8 0 0 0 6 9 1 295 
8 0 0 0 3 6 1 297 
10 0 0 0 10 10 1 297 
0 0 0 0 0 0 1 424 
0 0 0 0 0 0 2 299 302 
8 10 0 0 1 0 1 300 
2 5 0 0 10 0 2 311 301 
3 10 0 0 10 0 3 316 306 303 
1 6 0 0 3 0 3 316 306 304 
6 8 0 0 10 0 1 304 
3 8 0 0 5 0 1 305 
1 3 0 0 8 0 1 307 
5 10 0 0 10 0 1 307 
6 7 0 0 9 0 1 308 
8 10 0 0 9 0 1 309 
1 10 0 0 7 0 1 310 
7 8 0 0 10 0 2 318 312 
8 6 0 0 10 0 1 312 
6 6 0 0 7 0 1 313 
10 8 0 0 7 0 1 314 
6 9 0 0 6 0 1 315 
9 10 0 0 7 0 2 317 405 
2 7 0 0 9 0 1 317 
2 3 0 0 4 0 1 319 
2 6 0 0 8 0 1 319 
0 0 0 0 0 0 1 424 
0 0 0 0 0 0 1 321 
4 0 3 0 3 0 2 326 322 
5 0 7 0 7 0 2 330 323 
8 0 10 0 8 0 2 339 324 
2 0 9 0 8 0 1 325 
2 0 7 0 8 0 2 335 327 
8 0 8 0 8 0 3 339 335 329 
9 0 7 0 10 0 1 328 
10 0 9 0 10 0 1 329 
5 0 10 0 9 0 2 333 331 
6 0 8 0 8 0 2 339 334 
8 0 10 0 10 0 1 332 
10 0 10 0 4 0 1 334 
4 0 6 0 7 0 1 334 
10 0 9 0 7 0 1 336 
10 0 5 0 10 0 1 336 
7 0 5 0 7 0 1 337 
4 0 4 0 4 0 1 338 
9 0 10 0 7 0 1 340 
8 0 4 0 6 0 2 340 408 
2 0 9 0 9 0 1 341 
0 0 0 0 0 0 1 424 
0 0 0 0 0 0 2 343 344 
6 0 0 0 3 2 2 346 345 
4 0 0 0 7 5 2 347 345 
9 0 0 0 10 6 2 349 348 
8 0 0 0 6 6 1 347 
9 0 0 0 6 9 1 348 
1 0 0 0 10 6 1 350 
3 0 0 0 10 8 1 350 
2 0 0 0 8 9 1 351 
3 0 0 0 7 9 2 353 352 
10 0 0 0 8 9 1 354 
6 0 0 0 9 10 1 354 
4 0 0 0 9 4 1 355 
9 0 0 0 7 9 1 356 
6 0 0 0 7 10 2 361 357 
9 0 0 0 10 9 1 358 
7 0 0 0 9 7 1 359 
1 0 0 0 4 7 1 360 
10 0 0 0 4 9 1 362 
8 0 0 0 8 10 2 362 395 
4 0 0 0 8 6 1 363 
0 0 0 0 0 0 1 424 
0 0 0 0 0 0 4 365 367 369 372 
10 0 0 3 0 0 1 366 
7 0 0 7 0 0 1 368 
7 0 0 10 0 0 1 368 
5 0 0 9 0 0 1 370 
7 0 0 7 0 0 2 370 408 
1 0 0 7 0 0 1 371 
1 0 0 9 0 0 1 373 
5 0 0 5 0 0 1 373 
5 0 0 9 0 0 1 374 
10 0 0 9 0 0 1 375 
0 0 0 0 0 0 1 424 
0 0 0 0 0 0 3 377 379 396 
8 0 0 0 8 0 2 382 378 
9 0 0 0 7 0 2 385 380 
1 0 0 0 5 0 2 382 381 
10 0 0 0 6 0 1 381 
7 0 0 0 10 0 1 383 
10 0 0 0 10 0 1 383 
2 0 0 0 7 0 1 384 
7 0 0 0 10 0 1 386 
9 0 0 0 6 0 1 386 
2 0 0 0 6 0 1 387 
0 0 0 0 0 0 1 424 
0 0 0 0 0 0 3 389 391 404 
7 0 0 0 1 0 2 392 390 
6 0 0 0 7 0 1 393 
10 0 0 0 8 0 1 392 
8 0 0 0 10 0 1 394 
10 0 0 0 7 0 1 394 
8 0 0 0 10 0 1 395 
9 0 0 0 8 0 1 396 
4 0 0 0 10 0 2 398 397 
4 0 0 0 9 0 1 399 
6 0 0 0 5 0 1 399 
0 0 0 0 0 0 1 424 
0 0 0 0 0 0 2 401 417 
10 4 0 0 0 0 2 406 402 
8 6 0 0 0 0 2 410 403 
6 9 0 0 0 0 2 409 404 
7 8 0 0 0 0 1 405 
8 6 0 0 0 0 1 407 
4 10 0 0 0 0 1 407 
4 7 0 0 0 0 1 408 
3 10 0 0 0 0 1 411 
3 8 0 0 0 0 1 411 
1 7 0 0 0 0 1 411 
0 0 0 0 0 0 1 424 
0 0 0 0 0 0 2 413 419 
5 0 0 0 0 3 1 414 
7 0 0 0 0 8 2 421 415 
4 0 0 0 0 6 1 416 
5 0 0 0 0 10 1 417 
3 0 0 0 0 10 1 418 
8 0 0 0 0 4 1 420 
6 0 0 0 0 7 1 422 
9 0 0 0 0 10 1 423 
2 0 0 0 0 10 1 423 
10 0 0 0 0 7 1 423 
0 0 0 0 0 0 1 424 
0 0 0 0 0 0 0 
